
Log started (V12.8.0.0) Fri Apr 10 18:05:49 2020


Problem 'C:\Users\jkern\Documents\GitHub\CAPOW_jaw\UCED\LR\CA0\tmpsc81vuqm.pyomo.lp' read.
Read time = 0.20 sec. (13.88 ticks)

Problem name         : C:\Users\jkern\Documents\GitHub\CAPOW_jaw\UCED\LR\CA0\tmpsc81vuqm.pyomo.lp
Objective sense      : Minimize
Variables            :   95080  [Nneg: 68021,  Binary: 27059]
Objective nonzeros   :   77520
Linear constraints   :  116131  [Less: 116082,  Greater: 48,  Equal: 1]
  Nonzeros           :  447553
  RHS nonzeros       :   65001

Variables            : Min LB: 0.0000000        Max UB: 1.000000       
Objective nonzeros   : Min   : 0.3690037        Max   : 1.000000e+10   
Linear constraints   :
  Nonzeros           : Min   : 0.8500000        Max   : 10000.00       
  RHS nonzeros       : Min   : 0.01493772       Max   : 70926.18       
Tried aggregator 2 times.
MIP Presolve eliminated 46984 rows and 21422 columns.
MIP Presolve modified 834 coefficients.
Aggregator did 407 substitutions.
Reduced MIP has 68740 rows, 73251 columns, and 308227 nonzeros.
Reduced MIP has 24624 binaries, 0 generals, 0 SOSs, and 0 indicators.
Presolve time = 0.33 sec. (286.21 ticks)
Found incumbent of value 1.4097105e+14 after 0.56 sec. (440.63 ticks)
Probing time = 0.17 sec. (5.03 ticks)
Tried aggregator 1 time.
MIP Presolve eliminated 3 rows and 111 columns.
MIP Presolve modified 114 coefficients.
Reduced MIP has 68737 rows, 73140 columns, and 308110 nonzeros.
Reduced MIP has 24624 binaries, 0 generals, 0 SOSs, and 0 indicators.
Presolve time = 0.33 sec. (189.80 ticks)
Probing time = 0.08 sec. (5.40 ticks)
